c Grafo de prueba hardcodeado
c Mapeo: 1=A, 2=B, 3=C, 4=D, 5=E, 6=F
p sp 6 18
a 1 2 4
a 1 3 2
a 2 1 4
a 2 3 1
a 2 4 5
a 3 1 2
a 3 2 1
a 3 4 8
a 3 5 10
a 4 2 5
a 4 3 8
a 4 5 2
a 4 6 6
a 5 3 10
a 5 4 2
a 5 6 2
a 6 4 6
a 6 5 2